p tw 773 1419
1 114
1 380
1 381
1 505
1 567
1 568
1 653
1 654
2 765
2 766
3 330
3 331
4 756
4 757
5 727
5 728
6 409
6 410
7 307
7 308
7 520
7 521
8 690
8 691
9 594
9 595
10 395
10 396
10 521
10 522
10 579
10 580
11 649
11 650
12 621
12 622
13 637
13 638
13 709
13 710
14 419
14 420
15 308
15 309
15 522
15 523
15 580
15 581
16 309
16 310
16 751
16 752
17 445
17 446
18 358
18 359
18 533
18 534
18 633
18 634
19 323
19 324
20 704
20 705
21 725
21 726
22 760
22 761
23 402
23 403
24 705
24 706
25 771
25 772
26 411
26 412
27 329
27 330
27 605
27 606
27 667
27 668
28 305
28 306
29 463
29 464
30 327
30 328
30 604
30 605
31 496
31 497
32 370
32 371
32 554
32 555
33 708
33 709
34 674
34 675
35 696
35 697
36 328
36 329
37 353
37 354
38 338
38 339
38 509
38 510
38 612
38 613
39 466
39 467
39 743
39 744
40 692
40 693
41 698
41 699
42 376
42 377
42 499
42 500
42 768
42 769
43 682
43 683
44 438
44 439
45 697
45 698
46 749
46 750
47 474
47 475
47 646
47 647
48 493
48 494
49 311
49 312
50 717
50 718
51 373
51 374
51 558
51 559
52 473
52 474
52 757
52 758
53 429
53 430
54 312
54 313
55 306
55 307
55 519
55 520
55 578
55 579
56 689
56 690
57 446
57 447
58 89
58 381
58 382
58 672
59 677
59 678
60 407
60 408
61 392
61 393
61 745
61 746
62 410
62 411
63 302
63 303
63 571
63 572
64 687
64 688
65 416
65 417
65 540
65 541
65 596
65 597
66 417
66 418
66 744
66 745
67 377
67 378
67 770
67 771
68 393
68 394
69 583
69 584
70 719
70 720
71 712
71 713
72 478
72 479
73 357
73 358
74 405
74 406
75 676
75 677
76 437
76 438
77 421
77 422
77 545
77 546
78 432
78 433
79 638
79 639
80 710
80 711
81 208
81 734
81 772
81 773
82 454
82 455
82 628
82 629
83 722
83 723
84 342
84 343
85 424
85 425
85 551
85 552
86 423
86 424
86 715
86 716
87 313
87 314
88 720
88 721
89 672
90 433
90 434
90 763
90 764
91 396
91 397
91 694
91 695
92 447
92 448
92 518
92 519
93 477
93 478
93 767
93 768
94 404
94 405
94 534
94 535
95 471
95 472
95 750
95 751
96 753
96 754
97 365
97 366
97 544
97 545
97 641
97 642
98 420
98 421
98 546
98 547
99 678
99 679
100 671
100 672
101 451
101 452
102 401
102 402
102 586
102 587
103 350
103 351
103 525
103 526
103 622
103 623
104 449
104 450
105 673
105 674
106 326
106 327
106 560
106 561
106 603
106 604
107 758
107 759
108 387
108 388
109 706
109 707
110 695
110 696
111 444
111 445
111 481
111 482
111 614
111 615
112 441
112 442
112 501
112 502
112 608
112 609
113 487
113 488
114 141
114 382
114 383
114 505
114 569
114 654
114 655
115 435
115 436
115 497
115 498
115 606
115 607
116 430
116 431
116 561
116 562
116 602
116 603
117 467
117 468
118 492
118 493
119 730
119 731
120 450
120 451
120 624
120 625
121 500
121 501
122 336
122 337
123 475
123 476
123 562
123 563
123 662
123 663
124 389
124 390
124 511
124 512
124 575
124 576
125 316
125 317
125 530
125 531
126 356
126 357
126 766
126 767
127 668
127 669
128 754
128 755
129 300
129 773
130 400
130 401
131 390
131 391
131 513
131 514
131 577
131 578
132 728
132 729
133 598
133 599
134 464
134 465
135 688
135 689
136 701
136 702
137 362
137 363
138 748
138 749
139 343
139 344
140 648
140 649
141 228
141 384
141 385
141 569
141 655
142 352
142 353
143 334
143 335
144 713
144 714
145 733
145 734
146 724
146 725
147 383
147 384
148 465
148 466
149 427
149 428
149 553
149 554
149 660
149 661
150 418
150 419
151 732
151 733
152 735
152 736
153 684
153 685
154 685
154 686
155 314
155 315
155 527
155 528
155 585
155 586
155 702
155 703
156 406
156 407
157 480
157 481
158 746
158 747
159 443
159 444
159 613
159 614
160 345
160 346
160 618
160 619
161 457
161 458
161 528
161 529
161 629
161 630
162 317
162 318
162 590
162 591
163 346
163 347
163 516
163 517
164 718
164 719
165 301
165 302
165 506
165 507
165 570
165 571
166 584
166 585
167 468
167 469
168 729
168 730
169 426
169 427
169 657
169 658
170 349
170 350
170 620
170 621
171 488
171 489
172 364
172 365
172 542
172 543
173 333
173 334
173 565
173 566
173 609
173 610
174 707
174 708
175 691
175 692
176 344
176 345
176 515
176 516
176 617
176 618
177 589
177 590
178 422
178 423
178 548
178 549
178 599
178 600
179 498
179 499
179 627
179 628
180 367
180 368
181 484
181 485
182 391
182 392
183 304
183 305
183 510
183 511
183 573
183 574
184 574
184 575
185 394
185 395
186 318
186 319
186 538
186 539
186 592
186 593
187 639
187 640
188 736
188 737
189 670
189 671
190 486
190 487
191 366
191 367
191 543
191 544
192 354
192 355
193 319
193 320
193 539
193 540
194 303
194 304
194 508
194 509
194 572
194 573
195 659
195 660
196 322
196 323
196 541
196 542
196 597
196 598
197 680
197 681
198 379
198 380
198 566
198 567
198 651
198 652
199 469
199 470
199 491
199 492
200 347
200 348
200 619
200 620
201 683
201 684
201 739
201 740
202 700
202 701
203 494
203 495
204 731
204 732
205 385
205 386
205 675
205 676
206 375
206 376
206 563
206 564
206 647
206 648
207 412
207 413
207 591
207 592
208 734
209 408
209 409
209 536
209 537
209 588
209 589
210 324
210 325
210 549
210 550
210 600
210 601
211 325
211 326
211 555
211 556
212 610
212 611
213 458
213 459
213 531
213 532
213 631
213 632
214 747
214 748
215 403
215 404
216 439
216 440
217 664
217 665
218 669
218 670
219 340
219 341
219 740
219 741
220 723
220 724
221 348
221 349
221 658
221 659
222 360
222 361
223 679
223 680
224 436
224 437
224 564
224 565
224 607
224 608
225 635
225 636
226 716
226 717
227 363
227 364
227 640
227 641
228 235
228 479
228 655
229 502
229 503
230 462
230 463
231 397
231 398
231 523
231 524
231 581
231 582
232 331
232 332
233 752
233 753
234 337
234 338
234 611
234 612
235 479
235 568
235 569
235 652
235 653
236 310
236 311
236 524
236 525
236 582
236 583
237 372
237 373
237 661
237 662
238 699
238 700
238 762
238 763
239 386
239 387
239 507
239 508
240 431
240 432
240 559
240 560
241 413
241 414
241 483
241 484
242 320
242 321
243 399
243 400
243 759
243 760
244 253
244 489
244 490
244 656
245 755
245 756
246 351
246 352
246 623
246 624
247 414
247 415
248 459
248 460
248 532
248 533
248 632
248 633
249 335
249 336
250 452
250 453
250 526
250 527
250 625
250 626
251 714
251 715
252 442
252 443
252 737
252 738
253 490
253 491
253 656
254 576
254 577
255 504
255 505
256 461
256 462
256 537
256 538
256 636
256 637
257 593
257 594
258 448
258 449
258 517
258 518
259 741
259 742
260 369
260 370
260 552
260 553
261 455
261 456
261 769
261 770
262 361
262 362
263 339
263 340
263 512
263 513
263 616
263 617
264 440
264 441
265 476
265 477
265 761
265 762
266 721
266 722
267 359
267 360
268 495
268 496
269 615
269 616
270 453
270 454
270 665
270 666
271 425
271 426
272 726
272 727
273 398
273 399
274 456
274 457
274 529
274 530
274 703
274 704
275 460
275 461
275 535
275 536
275 634
275 635
276 374
276 375
276 764
276 765
277 693
277 694
278 428
278 429
278 556
278 557
278 601
278 602
279 378
279 379
279 650
279 651
280 388
280 389
281 738
281 739
282 711
282 712
282 742
282 743
283 470
283 471
283 550
283 551
283 643
283 644
284 630
284 631
285 415
285 416
286 368
286 369
286 547
286 548
286 642
286 643
287 371
287 372
288 482
288 483
288 663
288 664
289 686
289 687
290 355
290 356
290 626
290 627
291 341
291 342
291 514
291 515
292 321
292 322
292 485
292 486
292 595
292 596
293 434
293 435
294 315
294 316
294 587
294 588
295 472
295 473
295 557
295 558
295 644
295 645
296 332
296 333
296 503
296 504
297 681
297 682
298 666
298 667
299 645
299 646
300 773
301 302
302 303
303 304
304 305
305 306
306 307
307 308
308 309
309 310
310 311
311 312
312 313
313 314
314 315
315 316
316 317
317 318
318 319
319 320
320 321
321 322
322 323
323 324
324 325
325 326
326 327
327 328
328 329
329 330
330 331
331 332
332 333
333 334
334 335
335 336
336 337
337 338
338 339
339 340
340 341
341 342
342 343
343 344
344 345
345 346
346 347
347 348
348 349
349 350
350 351
351 352
352 353
353 354
354 355
355 356
356 357
357 358
358 359
359 360
360 361
361 362
362 363
363 364
364 365
365 366
366 367
367 368
368 369
369 370
370 371
371 372
372 373
373 374
374 375
375 376
376 377
377 378
378 379
379 380
380 381
381 382
382 383
383 384
384 385
385 386
386 387
387 388
388 389
389 390
390 391
391 392
392 393
393 394
394 395
395 396
396 397
397 398
398 399
399 400
400 401
401 402
402 403
403 404
404 405
405 406
406 407
407 408
408 409
409 410
410 411
411 412
412 413
413 414
414 415
415 416
416 417
417 418
418 419
419 420
420 421
421 422
422 423
423 424
424 425
425 426
426 427
427 428
428 429
429 430
430 431
431 432
432 433
433 434
434 435
435 436
436 437
437 438
438 439
439 440
440 441
441 442
442 443
443 444
444 445
445 446
446 447
447 448
448 449
449 450
450 451
451 452
452 453
453 454
454 455
455 456
456 457
457 458
458 459
459 460
460 461
461 462
462 463
463 464
464 465
465 466
466 467
467 468
468 469
469 470
470 471
471 472
472 473
473 474
474 475
475 476
476 477
477 478
478 479
480 481
481 482
482 483
483 484
484 485
485 486
486 487
487 488
488 489
489 490
490 491
491 492
492 493
493 494
494 495
495 496
496 497
497 498
498 499
499 500
500 501
501 502
502 503
503 504
504 505
506 507
507 508
508 509
509 510
510 511
511 512
512 513
513 514
514 515
515 516
516 517
517 518
518 519
519 520
520 521
521 522
522 523
523 524
524 525
525 526
526 527
527 528
528 529
529 530
530 531
531 532
532 533
533 534
534 535
535 536
536 537
537 538
538 539
539 540
540 541
541 542
542 543
543 544
544 545
545 546
546 547
547 548
548 549
549 550
550 551
551 552
552 553
553 554
554 555
555 556
556 557
557 558
558 559
559 560
560 561
561 562
562 563
563 564
564 565
565 566
566 567
567 568
568 569
570 571
571 572
572 573
573 574
574 575
575 576
576 577
577 578
578 579
579 580
580 581
581 582
582 583
583 584
584 585
585 586
586 587
587 588
588 589
589 590
590 591
591 592
592 593
593 594
594 595
595 596
596 597
597 598
598 599
599 600
600 601
601 602
602 603
603 604
604 605
605 606
606 607
607 608
608 609
609 610
610 611
611 612
612 613
613 614
614 615
615 616
616 617
617 618
618 619
619 620
620 621
621 622
622 623
623 624
624 625
625 626
626 627
627 628
628 629
629 630
630 631
631 632
632 633
633 634
634 635
635 636
636 637
637 638
638 639
639 640
640 641
641 642
642 643
643 644
644 645
645 646
646 647
647 648
648 649
649 650
650 651
651 652
652 653
653 654
654 655
657 658
658 659
659 660
660 661
661 662
662 663
663 664
664 665
665 666
666 667
667 668
668 669
669 670
670 671
671 672
673 674
674 675
675 676
676 677
677 678
678 679
679 680
680 681
681 682
682 683
683 684
684 685
685 686
686 687
687 688
688 689
689 690
690 691
691 692
692 693
693 694
694 695
695 696
696 697
697 698
698 699
699 700
700 701
701 702
702 703
703 704
704 705
705 706
706 707
707 708
708 709
709 710
710 711
711 712
712 713
713 714
714 715
715 716
716 717
717 718
718 719
719 720
720 721
721 722
722 723
723 724
724 725
725 726
726 727
727 728
728 729
729 730
730 731
731 732
732 733
733 734
735 736
736 737
737 738
738 739
739 740
740 741
741 742
742 743
743 744
744 745
745 746
746 747
747 748
748 749
749 750
750 751
751 752
752 753
753 754
754 755
755 756
756 757
757 758
758 759
759 760
760 761
761 762
762 763
763 764
764 765
765 766
766 767
767 768
768 769
769 770
770 771
771 772
772 773
